107
0 46 4 91 20 55 62 42 49 28 
35 22 25 18 76 79 43 12 30 48 
101 45 72 31 11 10 32 50 38 90 
41 94 3 75 92 96 34 27 2 71 
53 83 7 13 80 29 1 33 64 93 
70 59 66 21 52 6 98 86 57 95 
82 54 69 103 81 61 47 85 63 89 
88 106 14 84 60 5 104 68 44 16 
56 65 8 40 19 87 17 102 73 15 
97 24 58 39 99 74 23 105 36 77 
78 9 67 51 100 37 26 
